(set-info :smt-lib-version 2.6)
(set-logic QF_LIA)
(set-info :source |
Generated by: Martin Bromberger
Generated on: 2018-01-06
Generator: https://www.mpi-inf.mpg.de/fileadmin/inf/rg1/Documents/RandomUnboundedSageScript.tar.gz
Application: This is a satisfiable problem with bounded and unbounded directions and, therefore, a good test for the termination/completeness of branch-and-bound solvers.
Publications: M. Bromberger. A Reduction from Unbounded Linear Mixed Arithmetic Problems into Bounded Problems. (Work in progress.)

The benchmarks in this class were randomly generated by a sagemath script and by way of construction they are all satisfiable.
Target solver: CVC4 Mathsat SPASS-IQ YICES Z3
|)
(set-info :license "https://creativecommons.org/licenses/by/4.0/")
(set-info :category "random")
(set-info :status sat)
(declare-fun x0 () Int)
(declare-fun x1 () Int)
(declare-fun x2 () Int)
(declare-fun x3 () Int)
(declare-fun x4 () Int)
(declare-fun x5 () Int)
(declare-fun x6 () Int)
(declare-fun x7 () Int)
(declare-fun x8 () Int)
(declare-fun x9 () Int)
(declare-fun x10 () Int)
(declare-fun x11 () Int)
(declare-fun x12 () Int)
(declare-fun x13 () Int)
(declare-fun x14 () Int)
(declare-fun x15 () Int)
(declare-fun x16 () Int)
(declare-fun x17 () Int)
(declare-fun x18 () Int)
(declare-fun x19 () Int)
(declare-fun x20 () Int)
(declare-fun x21 () Int)
(declare-fun x22 () Int)
(declare-fun x23 () Int)
(declare-fun x24 () Int)

(assert (and 
(<= 37 (+ (* (- 1) x0) (+ (* 1 x2) (+ (* (- 2) x3) (+ (* (- 2) x4) (+ (* 1 x5) (+ (* (- 2) x7) (+ (* (- 1) x8) (+ (* 1 x9) (+ (* (- 1) x10) (+ (* (- 2) x11) (+ (* 1 x13) (+ (* (- 1) x14) (+ (* 2 x15) (+ (* (- 1) x17) (+ (* 1 x19) (+ (* (- 2) x20) (+ (* (- 2) x22) (+ (* (- 1) x23) (* (- 1) x24) ))))))))))))))))))) 
(<= (- 10) (+ (* 1 x0) (+ (* (- 1) x2) (+ (* (- 2) x3) (+ (* 2 x4) (+ (* 1 x5) (+ (* 2 x8) (+ (* (- 1) x9) (+ (* 1 x10) (+ (* (- 2) x11) (+ (* 2 x15) (+ (* (- 1) x16) (+ (* (- 2) x17) (+ (* 1 x18) (+ (* 2 x19) (+ (* (- 2) x21) (* 1 x22) )))))))))))))))) 
(<= (- 4) (+ (* 2 x0) (+ (* (- 2) x10) (+ (* 1 x11) (+ (* (- 2) x12) (+ (* (- 2) x16) (+ (* 1 x17) (+ (* 2 x19) (+ (* (- 2) x20) (+ (* 1 x22) (* 1 x24) )))))))))) 
(<= (- 6) (+ (* 2 x4) (+ (* (- 2) x7) (+ (* (- 1) x10) (+ (* (- 1) x11) (+ (* 1 x12) (+ (* 1 x15) (+ (* 1 x18) (+ (* 1 x20) (+ (* (- 1) x22) (* 2 x23) )))))))))) 
(<= (- 14) (+ (* (- 2) x0) (+ (* (- 2) x1) (+ (* 1 x2) (+ (* 2 x3) (+ (* (- 2) x4) (+ (* (- 2) x6) (+ (* (- 1) x8) (+ (* 2 x12) (+ (* 2 x13) (+ (* 1 x14) (+ (* 2 x15) (+ (* (- 1) x17) (+ (* 2 x18) (+ (* 2 x19) (* (- 2) x24) ))))))))))))))) 
(<= 19 (+ (* (- 1) x0) (+ (* (- 1) x2) (+ (* (- 1) x5) (+ (* 1 x7) (+ (* (- 2) x8) (+ (* (- 1) x9) (+ (* 1 x11) (+ (* (- 1) x13) (+ (* (- 2) x14) (+ (* (- 1) x15) (+ (* (- 1) x16) (+ (* (- 2) x17) (+ (* (- 2) x19) (+ (* (- 1) x20) (+ (* 1 x23) (* (- 2) x24) )))))))))))))))) 
(<= (- 7) (+ (* (- 1) x0) (+ (* 1 x1) (+ (* 2 x2) (+ (* (- 1) x4) (+ (* 2 x6) (+ (* 2 x8) (+ (* 2 x11) (+ (* (- 2) x12) (+ (* (- 2) x15) (+ (* 2 x16) (+ (* 2 x19) (+ (* 2 x20) (* 1 x21) ))))))))))))) 
(<= 16 (+ (* 1 x1) (+ (* 2 x2) (+ (* (- 1) x3) (+ (* 2 x5) (+ (* 2 x6) (+ (* 2 x7) (+ (* 2 x9) (+ (* 2 x10) (+ (* 2 x12) (+ (* (- 2) x13) (+ (* (- 2) x16) (+ (* (- 1) x17) (+ (* 2 x18) (+ (* 2 x20) (+ (* (- 1) x21) (+ (* 2 x22) (+ (* (- 1) x23) (* (- 2) x24) )))))))))))))))))) 
(<= (- 15) (+ (* (- 2) x0) (+ (* (- 1) x1) (+ (* 1 x3) (+ (* (- 1) x5) (+ (* 1 x6) (+ (* 1 x7) (+ (* 2 x8) (+ (* 2 x12) (+ (* (- 1) x13) (+ (* (- 1) x14) (+ (* (- 1) x15) (+ (* (- 2) x18) (+ (* (- 1) x19) (+ (* 2 x20) (+ (* 2 x21) (+ (* 1 x22) (* (- 1) x24) ))))))))))))))))) 
(<= 4 (+ (* (- 1) x0) (+ (* 1 x5) (+ (* 1 x6) (+ (* 1 x8) (+ (* (- 2) x10) (+ (* (- 1) x11) (+ (* (- 2) x16) (+ (* (- 2) x17) (+ (* 2 x19) (+ (* 2 x20) (+ (* 1 x21) (+ (* 1 x22) (* (- 1) x23) ))))))))))))) 
(<= (- 10) (+ (* (- 1) x0) (+ (* (- 1) x1) (+ (* (- 2) x2) (+ (* 2 x3) (+ (* (- 1) x5) (+ (* 1 x6) (+ (* (- 1) x7) (+ (* 2 x9) (+ (* 2 x11) (+ (* 2 x16) (+ (* (- 2) x19) (+ (* (- 2) x20) (+ (* 2 x21) (* (- 1) x24) )))))))))))))) 
(<= (- 14) (+ (* 1 x1) (+ (* 2 x3) (+ (* (- 2) x5) (+ (* 2 x8) (+ (* 2 x10) (+ (* (- 2) x11) (+ (* 2 x15) (+ (* 2 x16) (+ (* (- 2) x17) (+ (* (- 2) x19) (+ (* 1 x20) (+ (* (- 1) x21) (+ (* 1 x23) (* (- 2) x24) )))))))))))))) 
(<= (- 7) (+ (* (- 1) x2) (+ (* 1 x4) (+ (* (- 1) x6) (+ (* (- 1) x8) (+ (* 1 x9) (+ (* 1 x10) (+ (* (- 2) x11) (+ (* 2 x12) (+ (* 2 x13) (+ (* 1 x14) (+ (* (- 2) x17) (+ (* (- 1) x18) (* (- 1) x22) ))))))))))))) 
(<= (- 32) (+ (* 2 x3) (+ (* 1 x5) (+ (* (- 1) x6) (+ (* 2 x9) (+ (* 2 x13) (+ (* 2 x14) (+ (* 2 x16) (+ (* 2 x20) (+ (* 2 x21) (+ (* (- 1) x22) (* 2 x23) ))))))))))) 
(<= (- 15) (+ (* (- 1) x1) (+ (* (- 1) x4) (+ (* 2 x5) (+ (* 1 x6) (+ (* (- 1) x7) (+ (* 2 x8) (+ (* 1 x9) (+ (* 2 x10) (+ (* (- 1) x15) (+ (* 2 x17) (+ (* (- 2) x18) (+ (* (- 1) x19) (+ (* (- 2) x20) (+ (* (- 2) x22) (+ (* 2 x23) (* 2 x24) )))))))))))))))) 
(<= 5 (+ (* (- 1) x0) (+ (* 1 x1) (+ (* (- 1) x2) (+ (* (- 1) x3) (+ (* 2 x4) (+ (* (- 2) x7) (+ (* (- 2) x9) (+ (* (- 1) x10) (+ (* (- 1) x11) (+ (* (- 2) x12) (+ (* 2 x13) (+ (* (- 2) x14) (+ (* (- 1) x16) (+ (* 2 x22) (* 1 x24) ))))))))))))))) 
(<= 3 (+ (* (- 2) x0) (+ (* 1 x1) (+ (* 2 x2) (+ (* 2 x4) (+ (* (- 1) x5) (+ (* 2 x6) (+ (* (- 1) x9) (+ (* (- 1) x10) (+ (* 2 x13) (+ (* (- 1) x14) (+ (* 2 x15) (+ (* (- 2) x20) (+ (* (- 1) x21) (* (- 2) x22) )))))))))))))) 
(<= (- 1) (+ (* (- 2) x1) (+ (* (- 2) x4) (+ (* 2 x5) (+ (* (- 2) x6) (+ (* (- 1) x8) (+ (* (- 2) x12) (+ (* 2 x15) (+ (* 2 x16) (+ (* (- 1) x21) (+ (* 1 x22) (+ (* 1 x23) (* 1 x24) )))))))))))) 
(<= (- 31) (+ (* (- 2) x1) (+ (* (- 1) x3) (+ (* 2 x4) (+ (* (- 2) x6) (+ (* (- 1) x7) (+ (* 2 x8) (+ (* 2 x10) (+ (* 2 x11) (+ (* (- 2) x14) (+ (* 1 x16) (+ (* (- 1) x17) (+ (* 1 x18) (+ (* (- 1) x19) (+ (* 2 x20) (+ (* (- 2) x21) (* (- 2) x22) )))))))))))))))) 
(<= 12 (+ (* (- 2) x3) (+ (* (- 1) x4) (+ (* (- 1) x9) (+ (* 2 x12) (+ (* 1 x13) (+ (* (- 1) x16) (+ (* (- 1) x18) (+ (* (- 1) x23) (* (- 2) x24) ))))))))) 
(<= (- 13) (+ (* 2 x0) (+ (* (- 2) x1) (+ (* (- 1) x2) (+ (* 1 x6) (+ (* (- 1) x7) (+ (* 2 x8) (+ (* 1 x9) (+ (* (- 2) x10) (+ (* 2 x11) (+ (* (- 1) x12) (+ (* (- 2) x13) (+ (* (- 1) x15) (+ (* (- 2) x16) (+ (* (- 1) x18) (+ (* (- 1) x21) (+ (* 1 x22) (+ (* 1 x23) (* (- 2) x24) )))))))))))))))))) 
(<= (- 5) (+ (* (- 1) x0) (+ (* 2 x1) (+ (* (- 2) x2) (+ (* (- 1) x4) (+ (* 2 x5) (+ (* (- 2) x6) (+ (* 1 x7) (+ (* 1 x9) (+ (* (- 1) x13) (+ (* (- 1) x14) (+ (* 1 x15) (+ (* 2 x17) (+ (* 2 x18) (+ (* 1 x19) (* (- 2) x21) ))))))))))))))) 
(<= 8 (+ (* 1 x6) (+ (* 2 x7) (+ (* (- 1) x9) (+ (* 2 x12) (+ (* 1 x14) (+ (* (- 1) x15) (+ (* 1 x18) (+ (* 1 x20) (+ (* 2 x21) (+ (* (- 2) x23) (* (- 1) x24) ))))))))))) 
(<= (- 4) (+ (* (- 1) x1) (+ (* 1 x2) (+ (* 1 x3) (+ (* (- 2) x4) (+ (* 2 x5) (+ (* (- 2) x6) (+ (* 2 x7) (+ (* (- 1) x10) (+ (* (- 1) x11) (+ (* (- 2) x12) (+ (* 1 x14) (+ (* 1 x15) (+ (* 2 x19) (+ (* (- 2) x20) (+ (* (- 2) x21) (+ (* (- 1) x22) (+ (* 1 x23) (* (- 1) x24) )))))))))))))))))) 
(<= 189 (+ (* 11 x0) (+ (* 9 x1) (+ (* (- 2) x2) (+ (* 3 x3) (+ (* (- 2) x4) (+ (* (- 29) x5) (+ (* 5 x6) (+ (* 5 x7) (+ (* (- 15) x8) (+ (* (- 9) x9) (+ (* (- 5) x10) (+ (* 4 x11) (+ (* (- 3) x12) (+ (* (- 11) x13) (+ (* 8 x14) (+ (* (- 20) x15) (+ (* 8 x16) (+ (* 7 x17) (+ (* (- 13) x18) (+ (* (- 16) x19) (+ (* (- 3) x20) (+ (* 17 x21) (+ (* (- 2) x22) (+ (* (- 17) x23) (* 9 x24) ))))))))))))))))))))))))) 
(<= (- 422) (+ (* (- 19) x0) (+ (* (- 13) x1) (+ (* 7 x2) (+ (* (- 20) x3) (+ (* 20 x4) (+ (* 66 x5) (+ (* (- 4) x6) (+ (* (- 15) x7) (+ (* 31 x8) (+ (* 16 x9) (+ (* 19 x10) (+ (* (- 7) x11) (+ (* 18 x12) (+ (* 23 x13) (+ (* (- 15) x14) (+ (* 35 x15) (+ (* (- 22) x16) (+ (* (- 2) x17) (+ (* 36 x18) (+ (* 44 x19) (+ (* 16 x20) (+ (* (- 37) x21) (+ (* 12 x22) (+ (* 28 x23) (* 2 x24) ))))))))))))))))))))))))) 
(<= (- 17) (+ (* (- 21) x0) (+ (* (- 7) x1) (+ (* 12 x2) (+ (* (- 5) x3) (+ (* (- 25) x4) (+ (* 50 x5) (+ (* (- 17) x6) (+ (* 8 x7) (+ (* 5 x9) (+ (* (- 3) x11) (+ (* (- 8) x12) (+ (* 14 x13) (+ (* (- 15) x14) (+ (* 24 x15) (+ (* (- 20) x16) (+ (* (- 3) x17) (+ (* 14 x18) (+ (* 25 x19) (+ (* (- 13) x20) (+ (* (- 30) x21) (+ (* (- 5) x22) (+ (* 23 x23) (* (- 11) x24) ))))))))))))))))))))))) 
(<= 316 (+ (* 26 x0) (+ (* 11 x1) (+ (* (- 9) x2) (+ (* 20 x3) (+ (* (- 19) x4) (+ (* (- 52) x5) (+ (* 8 x7) (+ (* (- 26) x8) (+ (* (- 10) x9) (+ (* (- 12) x10) (+ (* (- 5) x11) (+ (* (- 27) x12) (+ (* (- 19) x13) (+ (* 22 x14) (+ (* (- 26) x15) (+ (* 27 x16) (+ (* 5 x17) (+ (* (- 43) x18) (+ (* (- 42) x19) (+ (* (- 15) x20) (+ (* 26 x21) (+ (* (- 5) x22) (+ (* (- 18) x23) (* 16 x24) )))))))))))))))))))))))) 
(<= (- 140) (+ (* (- 22) x0) (+ (* (- 9) x1) (+ (* (- 11) x2) (+ (* 1 x3) (+ (* 51 x4) (+ (* (- 58) x5) (+ (* 25 x6) (+ (* (- 6) x7) (+ (* 12 x8) (+ (* 2 x9) (+ (* (- 22) x10) (+ (* 50 x11) (+ (* 69 x12) (+ (* (- 11) x13) (+ (* (- 28) x14) (+ (* (- 15) x15) (+ (* (- 22) x16) (+ (* (- 16) x17) (+ (* 50 x18) (+ (* (- 1) x19) (+ (* 26 x20) (+ (* 42 x21) (+ (* (- 2) x22) (+ (* (- 29) x23) (* (- 79) x24) ))))))))))))))))))))))))) 
(<= (- 2) (+ (* (- 21) x0) (+ (* (- 8) x1) (+ (* 6 x2) (+ (* 3 x3) (+ (* 21 x4) (+ (* (- 35) x5) (+ (* 21 x6) (+ (* 8 x7) (+ (* 2 x8) (+ (* (- 2) x9) (+ (* (- 12) x10) (+ (* 52 x11) (+ (* 37 x12) (+ (* (- 11) x13) (+ (* (- 27) x14) (+ (* (- 22) x15) (+ (* (- 22) x16) (+ (* (- 14) x17) (+ (* 44 x18) (+ (* 5 x19) (+ (* (- 3) x20) (+ (* 24 x21) (+ (* (- 15) x22) (+ (* (- 11) x23) (* (- 70) x24) )))))))))))))))))))))))))))
(check-sat)
(exit)